GLPSOL--GLPK LP/MIP Solver 5.0
Parameter(s) specified in the command line:
 --lp ../modeles/4_244.lp --log 4_244.log
Reading problem data from '../modeles/4_244.lp'...
993 rows, 1960 columns, 6844 non-zeros
976 integer variables, all of which are binary
2963 lines were read
GLPK Integer Optimizer 5.0
993 rows, 1960 columns, 6844 non-zeros
976 integer variables, all of which are binary
Preprocessing...
968 constraint coefficient(s) were reduced
993 rows, 1956 columns, 6840 non-zeros
976 integer variables, all of which are binary
Scaling...
 A: min|aij| =  2.687e-04  max|aij| =  4.000e+00  ratio =  1.488e+04
GM: min|aij| =  9.054e-02  max|aij| =  1.105e+01  ratio =  1.220e+02
EQ: min|aij| =  8.197e-03  max|aij| =  1.000e+00  ratio =  1.220e+02
2N: min|aij| =  7.812e-03  max|aij| =  1.759e+00  ratio =  2.251e+02
Constructing initial basis...
Size of triangular part is 993
Solving LP relaxation...
GLPK Simplex Optimizer 5.0
993 rows, 1956 columns, 6840 non-zeros
      0: obj =   8.000000000e+00 inf =   1.950e+01 (9)
     67: obj =   4.065114404e-01 inf =   0.000e+00 (0)
*   249: obj =  -1.999731255e+00 inf =   1.463e-15 (0)
OPTIMAL LP SOLUTION FOUND
Integer optimization begins...
Long-step dual simplex will be used
+   249: mip =     not found yet >=              -inf        (1; 0)
+   253: >>>>>  -1.999731255e+00 >=  -1.999731255e+00 < 0.1% (4; 0)
+   253: mip =  -1.999731255e+00 >=     tree is empty   0.0% (0; 7)
INTEGER OPTIMAL SOLUTION FOUND
Time used:   0.0 secs
Memory used: 2.9 Mb (3015884 bytes)
